76 20 57 43 51 23 73 27 14 59 39 38 53 45 65 58 56 9 28 66 25 12 0 40 13 72 46 36 37 8 41 18 32 6 55 62 50 54 2 69 24 30 48 47 71 52 35 17 3 10 34 60 31 26 42 19 44 5 33 11 70 7 21 4 63 29 67 49 1 75 68 16 15 64 61 22 74 